2587 2401 2271 2207 2142 2064 1997 1930 1859 1779 1690 1627 1576 1533 1480 1443 1386 1343 1308 1265 1234 1200 1176 1148 1127 1118 1095 1081 1070 1045 1033 1012 992 980 971 955 943 928 925 917 905 895 889 884 877 869 861 855 852 848 841 837 834 828 820 817 815 809 806 803 802 800 797 794 791 789 787 784 784 779 779 779 779 778 777 777 776 775 774 772 771 771 771 770 770 769 769 769 769 769 769 769 769 769 769 769 767 767 767 767 767 767 767 767 767 767 767 767 767 767 767 767 767 767 767 767 767 767 767 767 767 767 767 767 767 767 767 767 767 767 767 767 767 767 767 767 767 767 767 767 767 767 767 767 767 767 767 767 767 767 767 767 767 767 767 767 767 767 767 767 767 767 767 767 767 767 767 767 767 767 767 767 767 767 767 767 767 767 767 767 767 767 767 767 767 767 767 767 767 767 767 767 767 767 767 767 767 767 767 767 767 767 767 767 767 767 767 767 767 767 767 767 767 767 767 767 767 767 767 767 767 767 767 767 767 767 767 767 767 767 767 767 767 767 767 767 767 767 767 767 767 767 767 767 767 767 767 767 767 767 767 767 767 767 767 767 767 767 767 767 767 767 767 767 767 767 767 767 767 767 767 767 767 767 767 767 767 767 767 767 767 767 767 767 767 767 767 767 767 767 767 767 767 767 767 767 767 767 767 767 767 767 767 767 767 767 767 767 767 767 767 767 767 767 767 767 767 767 767 767 767 767 767 767 767 767 767 767 767 767 767 767 767 767 767 767 767 767 767 767 767 767 767 767 767 767 767 767 767 767 767 767 767 767 767 767 767 767 767 767 767 767 767 767 767 767 767 767 767 767 767 767 767 767 767 767 767 767 767 767 767 767 767 767 767 767 767 767 767 767 767 767 767 767 767 767 767 767 767 767 767 767 767 767 766 766 766 766 766 766 766 766 766 766 766 766 766 766 766 766 766 766 766 766 766 766 766 766 766 766 766 766 766 766 766 766 766 766 766 766 766 766 766 766 766 766 766 766 766 766 766 766 766 766 766 766 766 766 766 766 766 766 766 766 766 766 766 766 766 766 766 766 766 766 766 766 766 766 766 766 766 766 766 766 766 766 766 766 766 766 766 766 766 766 766 766 766 766 766 766 766 766 766 766 766 766 766 766 766 766 766 766 766 766 766 766 766 766 766 766 766 766 766 766 766 766 766 766 766 766 766 766 766 766 766 766 766 763 763 763 763 763 763 759 759 759 759 759 759 759 759 759 759 759 759 759 759 759 759 759 759 759 759 759 759 759 759 759 759 759 759 759 759 759 759 759 759 759 759 759 759 759 759 759 759 759 759 759 759 759 759 759 759 759 759 759 759 759 759 759 759 759 759 759 759 759 759 759 759 759 759 759 759 759 759 759 759 759 759 759 759 759 759 759 759 759 759 759 759 759 759 759 759 759 759 759 759 759 759 759 759 759 759 759 759 759 759 759 759 759 759 759 759 759 759 759 759 759 759 759 759 759 759 759 759 759 759 759 759 759 759 759 759 759 759 759 759 759 759 759 759 759 759 759 759 759 759 759 759 759 759 759 759 759 759 759 759 759 759 759 759 759 759 759 759 759 759 759 759 759 759 759 759 759 759 759 759 759 759 759 759 759 759 759 759 759 759 759 759 759 759 759 759 759 759 759 759 759 759 759 759 759 759 759 759 759 759 759 759 759 759 759 759 759 759 759 759 759 759 759 759 759 759 759 759 759 759 759 759 759 759 759 759 759 759 759 759 759 759 759 759 759 759 759 759 759 759 759 759 759 759 759 759 759 759 759 759 759 759 759 759 759 759 759 759 759 759 759 759 759 759 759 759 759 759 759 759 759 759 759 759 759 759 759 759 759 759 759 759 759 759 759 759 759 759 759 759 759 759 759 759 759 759 759 759 759 759 759 759 759 759 759 759 759 759 759 759 759 759 759 759 759 759 759 759 759 759 759 759 759 759 759 759 759 759 759 759 759 759 759 759 759 759 759 759 759 759 759 759 759 759 759 759 759 759 759 759 759 759 759 759 759 759 759 759 759 759 759 759 759 759 759 759 759 759 759 759 759 759 759 759 759 759 759 759 759 759 759 759 759 759 759 759 759 759 759 759 759 759 759 759 759 759 759 759 759 759 759 759 759 759 759 759 759 759 759 759 759 759 759 759 759 759 759 759 759 759 759 759 759 759 759 759 759 759 759 759 759 759 759 759 759 759 759 759 759 759 759 759 759 759 759 759 759 759 759 759 759 759 759 759 759 759 759 759 759 759 759 759 759 759 759 759 759 759 759 759 759 759 759 759 759 759 759 759 759 759 759 759 759 759 759 759 759 759 759 759 759 759 759 759 759 759 759 
0 0 0 0 0 0 0 0 0 0 0 0 0 0 0 0 0 0 0 0 0 0 0 0 0 0 0 0 0 0 0 0 0 0 0 0 0 0 0 0 0 0 0 0 0 0 0 0 0 0 0 0 0 0 0 0 0 0 0 0 0 0 0 0 0 0 0 0 0 0 0 0 0 0 0 0 0 0 0 0 0 0 0 0 0 0 0 0 0 0 0 0 0 0 0 0 0 0 0 0 0 0 0 0 0 0 0 0 0 0 0 0 0 0 0 0 0 0 0 0 0 0 0 0 0 0 0 0 0 0 0 0 0 0 0 0 0 0 0 0 0 0 0 0 0 0 0 0 0 0 0 0 0 0 0 0 0 0 0 0 0 0 0 0 0 0 0 0 0 0 0 0 0 0 0 0 0 0 0 0 0 0 0 0 0 0 0 0 0 0 0 0 0 0 0 0 0 0 0 0 0 0 0 0 0 0 0 0 0 0 0 0 0 0 0 0 0 0 0 0 0 0 0 0 0 0 0 0 0 0 0 0 0 0 0 0 0 0 0 0 0 0 0 0 0 0 0 0 0 0 0 0 0 0 0 0 0 0 0 0 0 0 0 0 0 0 0 0 0 0 0 0 0 0 0 0 0 0 0 0 0 0 0 0 0 0 0 0 0 0 0 0 0 0 0 0 0 0 0 0 0 0 0 0 0 0 0 0 0 0 0 0 0 0 0 0 0 0 0 0 0 0 0 0 0 0 0 0 0 0 0 0 0 0 0 0 0 0 0 0 0 0 0 0 0 0 0 0 0 0 0 0 0 0 0 0 0 0 0 0 0 0 0 0 0 0 0 0 0 0 0 0 0 0 0 0 0 0 0 0 0 0 0 0 0 0 0 0 0 0 0 0 0 0 0 0 0 0 0 0 0 0 0 0 0 0 0 0 0 0 0 0 0 0 0 0 0 0 0 0 0 0 0 0 0 0 0 0 0 0 0 0 0 0 0 0 0 0 0 0 0 0 0 0 0 0 0 0 0 0 0 0 0 0 0 0 0 0 0 0 0 0 0 0 0 0 0 0 0 0 0 0 0 0 0 0 0 0 0 0 0 0 0 0 0 0 0 0 0 0 0 0 0 0 0 0 0 0 0 0 0 0 0 0 0 0 0 0 0 0 0 0 0 0 0 0 0 0 0 0 0 0 0 0 0 0 0 0 0 0 0 0 0 0 0 0 0 0 0 0 0 0 0 0 0 0 0 0 0 0 0 0 0 0 0 0 0 0 0 0 0 0 0 0 0 0 0 0 0 0 0 0 0 0 0 0 0 0 0 0 0 0 0 0 0 0 0 0 0 0 0 0 0 0 0 0 0 0 0 0 0 0 0 0 0 0 0 0 0 0 0 0 0 0 0 0 0 0 0 0 0 0 0 0 0 0 0 0 0 0 0 0 0 0 0 0 0 0 0 0 0 0 0 0 0 0 0 0 0 0 0 0 0 0 0 0 0 0 0 0 0 0 0 0 0 0 0 0 0 0 0 0 0 0 0 0 0 0 0 0 0 0 0 0 0 0 0 0 0 0 0 0 0 0 0 0 0 0 0 0 0 0 0 0 0 0 0 0 0 0 0 0 0 0 0 0 0 0 0 0 0 0 0 0 0 0 0 0 0 0 0 0 0 0 0 0 0 0 0 0 0 0 0 0 0 0 0 0 0 0 0 0 0 0 0 0 0 0 0 0 0 0 0 0 0 0 0 0 0 0 0 0 0 0 0 0 0 0 0 0 0 0 0 0 0 0 0 0 0 0 0 0 0 0 0 0 0 0 0 0 0 0 0 0 0 0 0 0 0 0 0 0 0 0 0 0 0 0 0 0 0 0 0 0 0 0 0 0 0 0 0 0 0 0 0 0 0 0 0 0 0 0 0 0 0 0 0 0 0 0 0 0 0 0 0 0 0 0 0 0 0 0 0 0 0 0 0 0 0 0 0 0 0 0 0 0 0 0 0 0 0 0 0 0 0 0 0 0 0 0 0 0 0 0 0 0 0 0 0 0 0 0 0 0 0 0 0 0 0 0 0 0 0 0 0 0 0 0 0 0 0 0 0 0 0 0 0 0 0 0 0 0 0 0 0 0 0 0 0 0 0 0 0 0 0 0 0 0 0 0 0 0 0 0 0 0 0 0 0 0 0 0 0 0 0 0 0 0 0 0 0 0 0 0 0 0 0 0 0 0 0 0 0 0 0 0 0 0 0 0 0 0 0 0 0 0 0 0 0 0 0 0 0 0 0 0 0 0 0 0 0 0 0 0 0 0 0 0 0 0 0 0 0 0 0 0 0 0 0 0 0 0 0 0 0 0 0 0 0 0 0 0 0 0 